* #variable= 1131 #constraint= 1108 
-1 x27 +1 x1 >= 0 ;
-1 x27 +1 x14 >= 0 ;
+1 x27 -1 x1 -1 x14 >= -1 ;
+1 x40 -1 x1 >= 0 ;
+1 x40 -1 x14 >= 0 ;
-1 x40 +1 x1 +1 x14 >= 0 ;
+1 x14 = 0 ;
-1 x28 +1 x2 >= 0 ;
-1 x28 +1 x15 >= 0 ;
+1 x28 -1 x2 -1 x15 >= -1 ;
+1 x41 -1 x2 >= 0 ;
+1 x41 -1 x15 >= 0 ;
-1 x41 +1 x2 +1 x15 >= 0 ;
+1 x15 = 1 ;
-1 x29 +1 x3 >= 0 ;
-1 x29 +1 x16 >= 0 ;
+1 x29 -1 x3 -1 x16 >= -1 ;
+1 x42 -1 x3 >= 0 ;
+1 x42 -1 x16 >= 0 ;
-1 x42 +1 x3 +1 x16 >= 0 ;
+1 x16 = 0 ;
-1 x30 +1 x4 >= 0 ;
-1 x30 +1 x17 >= 0 ;
+1 x30 -1 x4 -1 x17 >= -1 ;
+1 x43 -1 x4 >= 0 ;
+1 x43 -1 x17 >= 0 ;
-1 x43 +1 x4 +1 x17 >= 0 ;
+1 x17 = 1 ;
-1 x31 +1 x5 >= 0 ;
-1 x31 +1 x18 >= 0 ;
+1 x31 -1 x5 -1 x18 >= -1 ;
+1 x44 -1 x5 >= 0 ;
+1 x44 -1 x18 >= 0 ;
-1 x44 +1 x5 +1 x18 >= 0 ;
+1 x18 = 0 ;
-1 x32 +1 x6 >= 0 ;
-1 x32 +1 x19 >= 0 ;
+1 x32 -1 x6 -1 x19 >= -1 ;
+1 x45 -1 x6 >= 0 ;
+1 x45 -1 x19 >= 0 ;
-1 x45 +1 x6 +1 x19 >= 0 ;
+1 x19 = 1 ;
-1 x33 +1 x7 >= 0 ;
-1 x33 +1 x20 >= 0 ;
+1 x33 -1 x7 -1 x20 >= -1 ;
+1 x46 -1 x7 >= 0 ;
+1 x46 -1 x20 >= 0 ;
-1 x46 +1 x7 +1 x20 >= 0 ;
+1 x20 = 0 ;
-1 x34 +1 x8 >= 0 ;
-1 x34 +1 x21 >= 0 ;
+1 x34 -1 x8 -1 x21 >= -1 ;
+1 x47 -1 x8 >= 0 ;
+1 x47 -1 x21 >= 0 ;
-1 x47 +1 x8 +1 x21 >= 0 ;
+1 x21 = 1 ;
-1 x35 +1 x9 >= 0 ;
-1 x35 +1 x22 >= 0 ;
+1 x35 -1 x9 -1 x22 >= -1 ;
+1 x48 -1 x9 >= 0 ;
+1 x48 -1 x22 >= 0 ;
-1 x48 +1 x9 +1 x22 >= 0 ;
+1 x22 = 0 ;
-1 x36 +1 x10 >= 0 ;
-1 x36 +1 x23 >= 0 ;
+1 x36 -1 x10 -1 x23 >= -1 ;
+1 x49 -1 x10 >= 0 ;
+1 x49 -1 x23 >= 0 ;
-1 x49 +1 x10 +1 x23 >= 0 ;
+1 x23 = 1 ;
-1 x37 +1 x11 >= 0 ;
-1 x37 +1 x24 >= 0 ;
+1 x37 -1 x11 -1 x24 >= -1 ;
+1 x50 -1 x11 >= 0 ;
+1 x50 -1 x24 >= 0 ;
-1 x50 +1 x11 +1 x24 >= 0 ;
+1 x24 = 0 ;
-1 x38 +1 x12 >= 0 ;
-1 x38 +1 x25 >= 0 ;
+1 x38 -1 x12 -1 x25 >= -1 ;
+1 x51 -1 x12 >= 0 ;
+1 x51 -1 x25 >= 0 ;
-1 x51 +1 x12 +1 x25 >= 0 ;
+1 x25 = 1 ;
-1 x39 +1 x13 >= 0 ;
-1 x39 +1 x26 >= 0 ;
+1 x39 -1 x13 -1 x26 >= -1 ;
+1 x52 -1 x13 >= 0 ;
+1 x52 -1 x26 >= 0 ;
-1 x52 +1 x13 +1 x26 >= 0 ;
+1 x26 = 0 ;
-1 x66 +1 x40 >= 0 ;
-1 x66 +1 x53 >= 0 ;
+1 x66 -1 x40 -1 x53 >= -1 ;
+1 x66 +2 x79 +4 x92 +8 x105 +16 x118 +32 x131 +64 x144 +128 x157 +256 x170 +512 x183 +1024 x196 +2048 x209 +4096 x222 +2 x67 +4 x80 +8 x93 +16 x106 +32 x119 +64 x132 +128 x145 +256 x158 +512 x171 +1024 x184 +2048 x197 +4096 x210 +8192 x223 +4 x68 +8 x81 +16 x94 +32 x107 +64 x120 +128 x133 +256 x146 +512 x159 +1024 x172 +2048 x185 +4096 x198 +8192 x211 +16384 x224 +8 x69 +16 x82 +32 x95 +64 x108 +128 x121 +256 x134 +512 x147 +1024 x160 +2048 x173 +4096 x186 +8192 x199 +16384 x212 +32768 x225 +16 x70 +32 x83 +64 x96 +128 x109 +256 x122 +512 x135 +1024 x148 +2048 x161 +4096 x174 +8192 x187 +16384 x200 +32768 x213 +65536 x226 +32 x71 +64 x84 +128 x97 +256 x110 +512 x123 +1024 x136 +2048 x149 +4096 x162 +8192 x175 +16384 x188 +32768 x201 +65536 x214 +131072 x227 +64 x72 +128 x85 +256 x98 +512 x111 +1024 x124 +2048 x137 +4096 x150 +8192 x163 +16384 x176 +32768 x189 +65536 x202 +131072 x215 +262144 x228 +128 x73 +256 x86 +512 x99 +1024 x112 +2048 x125 +4096 x138 +8192 x151 +16384 x164 +32768 x177 +65536 x190 +131072 x203 +262144 x216 +524288 x229 +256 x74 +512 x87 +1024 x100 +2048 x113 +4096 x126 +8192 x139 +16384 x152 +32768 x165 +65536 x178 +131072 x191 +262144 x204 +524288 x217 +1048576 x230 +512 x75 +1024 x88 +2048 x101 +4096 x114 +8192 x127 +16384 x140 +32768 x153 +65536 x166 +131072 x179 +262144 x192 +524288 x205 +1048576 x218 +2097152 x231 +1024 x76 +2048 x89 +4096 x102 +8192 x115 +16384 x128 +32768 x141 +65536 x154 +131072 x167 +262144 x180 +524288 x193 +1048576 x206 +2097152 x219 +4194304 x232 +2048 x77 +4096 x90 +8192 x103 +16384 x116 +32768 x129 +65536 x142 +131072 x155 +262144 x168 +524288 x181 +1048576 x194 +2097152 x207 +4194304 x220 +8388608 x233 +4096 x78 +8192 x91 +16384 x104 +32768 x117 +65536 x130 +131072 x143 +262144 x156 +524288 x169 +1048576 x182 +2097152 x195 +4194304 x208 +8388608 x221 +16777216 x234 -1 x1080 -2 x1081 -4 x1082 -8 x1083 -16 x1084 -32 x1085 -64 x1086 -128 x1087 -256 x1088 -512 x1089 -1024 x1090 -2048 x1091 -4096 x1092 -8192 x1093 -16384 x1094 -32768 x1095 -65536 x1096 -131072 x1097 -262144 x1098 -524288 x1099 -1048576 x1100 -2097152 x1101 -4194304 x1102 -8388608 x1103 -16777216 x1104 -33554432 x1105 = 0; 
-1 x573 +1 x27 >= 0 ;
-1 x573 +1 x53 >= 0 ;
+1 x573 -1 x27 -1 x53 >= -1 ;
+1 x573 +2 x586 +4 x599 +8 x612 +16 x625 +32 x638 +64 x651 +128 x664 +256 x677 +512 x690 +1024 x703 +2048 x716 +4096 x729 +2 x574 +4 x587 +8 x600 +16 x613 +32 x626 +64 x639 +128 x652 +256 x665 +512 x678 +1024 x691 +2048 x704 +4096 x717 +8192 x730 +4 x575 +8 x588 +16 x601 +32 x614 +64 x627 +128 x640 +256 x653 +512 x666 +1024 x679 +2048 x692 +4096 x705 +8192 x718 +16384 x731 +8 x576 +16 x589 +32 x602 +64 x615 +128 x628 +256 x641 +512 x654 +1024 x667 +2048 x680 +4096 x693 +8192 x706 +16384 x719 +32768 x732 +16 x577 +32 x590 +64 x603 +128 x616 +256 x629 +512 x642 +1024 x655 +2048 x668 +4096 x681 +8192 x694 +16384 x707 +32768 x720 +65536 x733 +32 x578 +64 x591 +128 x604 +256 x617 +512 x630 +1024 x643 +2048 x656 +4096 x669 +8192 x682 +16384 x695 +32768 x708 +65536 x721 +131072 x734 +64 x579 +128 x592 +256 x605 +512 x618 +1024 x631 +2048 x644 +4096 x657 +8192 x670 +16384 x683 +32768 x696 +65536 x709 +131072 x722 +262144 x735 +128 x580 +256 x593 +512 x606 +1024 x619 +2048 x632 +4096 x645 +8192 x658 +16384 x671 +32768 x684 +65536 x697 +131072 x710 +262144 x723 +524288 x736 +256 x581 +512 x594 +1024 x607 +2048 x620 +4096 x633 +8192 x646 +16384 x659 +32768 x672 +65536 x685 +131072 x698 +262144 x711 +524288 x724 +1048576 x737 +512 x582 +1024 x595 +2048 x608 +4096 x621 +8192 x634 +16384 x647 +32768 x660 +65536 x673 +131072 x686 +262144 x699 +524288 x712 +1048576 x725 +2097152 x738 +1024 x583 +2048 x596 +4096 x609 +8192 x622 +16384 x635 +32768 x648 +65536 x661 +131072 x674 +262144 x687 +524288 x700 +1048576 x713 +2097152 x726 +4194304 x739 +2048 x584 +4096 x597 +8192 x610 +16384 x623 +32768 x636 +65536 x649 +131072 x662 +262144 x675 +524288 x688 +1048576 x701 +2097152 x714 +4194304 x727 +8388608 x740 +4096 x585 +8192 x598 +16384 x611 +32768 x624 +65536 x637 +131072 x650 +262144 x663 +524288 x676 +1048576 x689 +2097152 x702 +4194304 x715 +8388608 x728 +16777216 x741 -1 x1106 -2 x1107 -4 x1108 -8 x1109 -16 x1110 -32 x1111 -64 x1112 -128 x1113 -256 x1114 -512 x1115 -1024 x1116 -2048 x1117 -4096 x1118 -8192 x1119 -16384 x1120 -32768 x1121 -65536 x1122 -131072 x1123 -262144 x1124 -524288 x1125 -1048576 x1126 -2097152 x1127 -4194304 x1128 -8388608 x1129 -16777216 x1130 -33554432 x1131 = 0; 
+1 x1106 -1 x1080 +2 x1107 -2 x1081 +4 x1108 -4 x1082 +8 x1109 -8 x1083 +16 x1110 -16 x1084 +32 x1111 -32 x1085 +64 x1112 -64 x1086 +128 x1113 -128 x1087 +256 x1114 -256 x1088 +512 x1115 -512 x1089 +1024 x1116 -1024 x1090 +2048 x1117 -2048 x1091 +4096 x1118 -4096 x1092 +8192 x1119 -8192 x1093 +16384 x1120 -16384 x1094 +32768 x1121 -32768 x1095 +65536 x1122 -65536 x1096 +131072 x1123 -131072 x1097 +262144 x1124 -262144 x1098 +524288 x1125 -524288 x1099 +1048576 x1126 -1048576 x1100 +2097152 x1127 -2097152 x1101 +4194304 x1128 -4194304 x1102 +8388608 x1129 -8388608 x1103 +16777216 x1130 -16777216 x1104 +33554432 x1131 -33554432 x1105 >= 1 ;
-1 x79 +1 x41 >= 0 ;
-1 x79 +1 x53 >= 0 ;
+1 x79 -1 x41 -1 x53 >= -1 ;
-1 x67 +1 x40 >= 0 ;
-1 x67 +1 x54 >= 0 ;
+1 x67 -1 x40 -1 x54 >= -1 ;
-1 x586 +1 x28 >= 0 ;
-1 x586 +1 x53 >= 0 ;
+1 x586 -1 x28 -1 x53 >= -1 ;
-1 x574 +1 x27 >= 0 ;
-1 x574 +1 x54 >= 0 ;
+1 x574 -1 x27 -1 x54 >= -1 ;
-1 x92 +1 x42 >= 0 ;
-1 x92 +1 x53 >= 0 ;
+1 x92 -1 x42 -1 x53 >= -1 ;
-1 x80 +1 x41 >= 0 ;
-1 x80 +1 x54 >= 0 ;
+1 x80 -1 x41 -1 x54 >= -1 ;
-1 x68 +1 x40 >= 0 ;
-1 x68 +1 x55 >= 0 ;
+1 x68 -1 x40 -1 x55 >= -1 ;
-1 x599 +1 x29 >= 0 ;
-1 x599 +1 x53 >= 0 ;
+1 x599 -1 x29 -1 x53 >= -1 ;
-1 x587 +1 x28 >= 0 ;
-1 x587 +1 x54 >= 0 ;
+1 x587 -1 x28 -1 x54 >= -1 ;
-1 x575 +1 x27 >= 0 ;
-1 x575 +1 x55 >= 0 ;
+1 x575 -1 x27 -1 x55 >= -1 ;
-1 x105 +1 x43 >= 0 ;
-1 x105 +1 x53 >= 0 ;
+1 x105 -1 x43 -1 x53 >= -1 ;
-1 x93 +1 x42 >= 0 ;
-1 x93 +1 x54 >= 0 ;
+1 x93 -1 x42 -1 x54 >= -1 ;
-1 x81 +1 x41 >= 0 ;
-1 x81 +1 x55 >= 0 ;
+1 x81 -1 x41 -1 x55 >= -1 ;
-1 x69 +1 x40 >= 0 ;
-1 x69 +1 x56 >= 0 ;
+1 x69 -1 x40 -1 x56 >= -1 ;
-1 x612 +1 x30 >= 0 ;
-1 x612 +1 x53 >= 0 ;
+1 x612 -1 x30 -1 x53 >= -1 ;
-1 x600 +1 x29 >= 0 ;
-1 x600 +1 x54 >= 0 ;
+1 x600 -1 x29 -1 x54 >= -1 ;
-1 x588 +1 x28 >= 0 ;
-1 x588 +1 x55 >= 0 ;
+1 x588 -1 x28 -1 x55 >= -1 ;
-1 x576 +1 x27 >= 0 ;
-1 x576 +1 x56 >= 0 ;
+1 x576 -1 x27 -1 x56 >= -1 ;
-1 x118 +1 x44 >= 0 ;
-1 x118 +1 x53 >= 0 ;
+1 x118 -1 x44 -1 x53 >= -1 ;
-1 x106 +1 x43 >= 0 ;
-1 x106 +1 x54 >= 0 ;
+1 x106 -1 x43 -1 x54 >= -1 ;
-1 x94 +1 x42 >= 0 ;
-1 x94 +1 x55 >= 0 ;
+1 x94 -1 x42 -1 x55 >= -1 ;
-1 x82 +1 x41 >= 0 ;
-1 x82 +1 x56 >= 0 ;
+1 x82 -1 x41 -1 x56 >= -1 ;
-1 x70 +1 x40 >= 0 ;
-1 x70 +1 x57 >= 0 ;
+1 x70 -1 x40 -1 x57 >= -1 ;
-1 x625 +1 x31 >= 0 ;
-1 x625 +1 x53 >= 0 ;
+1 x625 -1 x31 -1 x53 >= -1 ;
-1 x613 +1 x30 >= 0 ;
-1 x613 +1 x54 >= 0 ;
+1 x613 -1 x30 -1 x54 >= -1 ;
-1 x601 +1 x29 >= 0 ;
-1 x601 +1 x55 >= 0 ;
+1 x601 -1 x29 -1 x55 >= -1 ;
-1 x589 +1 x28 >= 0 ;
-1 x589 +1 x56 >= 0 ;
+1 x589 -1 x28 -1 x56 >= -1 ;
-1 x577 +1 x27 >= 0 ;
-1 x577 +1 x57 >= 0 ;
+1 x577 -1 x27 -1 x57 >= -1 ;
-1 x131 +1 x45 >= 0 ;
-1 x131 +1 x53 >= 0 ;
+1 x131 -1 x45 -1 x53 >= -1 ;
-1 x119 +1 x44 >= 0 ;
-1 x119 +1 x54 >= 0 ;
+1 x119 -1 x44 -1 x54 >= -1 ;
-1 x107 +1 x43 >= 0 ;
-1 x107 +1 x55 >= 0 ;
+1 x107 -1 x43 -1 x55 >= -1 ;
-1 x95 +1 x42 >= 0 ;
-1 x95 +1 x56 >= 0 ;
+1 x95 -1 x42 -1 x56 >= -1 ;
-1 x83 +1 x41 >= 0 ;
-1 x83 +1 x57 >= 0 ;
+1 x83 -1 x41 -1 x57 >= -1 ;
-1 x71 +1 x40 >= 0 ;
-1 x71 +1 x58 >= 0 ;
+1 x71 -1 x40 -1 x58 >= -1 ;
-1 x638 +1 x32 >= 0 ;
-1 x638 +1 x53 >= 0 ;
+1 x638 -1 x32 -1 x53 >= -1 ;
-1 x626 +1 x31 >= 0 ;
-1 x626 +1 x54 >= 0 ;
+1 x626 -1 x31 -1 x54 >= -1 ;
-1 x614 +1 x30 >= 0 ;
-1 x614 +1 x55 >= 0 ;
+1 x614 -1 x30 -1 x55 >= -1 ;
-1 x602 +1 x29 >= 0 ;
-1 x602 +1 x56 >= 0 ;
+1 x602 -1 x29 -1 x56 >= -1 ;
-1 x590 +1 x28 >= 0 ;
-1 x590 +1 x57 >= 0 ;
+1 x590 -1 x28 -1 x57 >= -1 ;
-1 x578 +1 x27 >= 0 ;
-1 x578 +1 x58 >= 0 ;
+1 x578 -1 x27 -1 x58 >= -1 ;
-1 x144 +1 x46 >= 0 ;
-1 x144 +1 x53 >= 0 ;
+1 x144 -1 x46 -1 x53 >= -1 ;
-1 x132 +1 x45 >= 0 ;
-1 x132 +1 x54 >= 0 ;
+1 x132 -1 x45 -1 x54 >= -1 ;
-1 x120 +1 x44 >= 0 ;
-1 x120 +1 x55 >= 0 ;
+1 x120 -1 x44 -1 x55 >= -1 ;
-1 x108 +1 x43 >= 0 ;
-1 x108 +1 x56 >= 0 ;
+1 x108 -1 x43 -1 x56 >= -1 ;
-1 x96 +1 x42 >= 0 ;
-1 x96 +1 x57 >= 0 ;
+1 x96 -1 x42 -1 x57 >= -1 ;
-1 x84 +1 x41 >= 0 ;
-1 x84 +1 x58 >= 0 ;
+1 x84 -1 x41 -1 x58 >= -1 ;
-1 x72 +1 x40 >= 0 ;
-1 x72 +1 x59 >= 0 ;
+1 x72 -1 x40 -1 x59 >= -1 ;
-1 x651 +1 x33 >= 0 ;
-1 x651 +1 x53 >= 0 ;
+1 x651 -1 x33 -1 x53 >= -1 ;
-1 x639 +1 x32 >= 0 ;
-1 x639 +1 x54 >= 0 ;
+1 x639 -1 x32 -1 x54 >= -1 ;
-1 x627 +1 x31 >= 0 ;
-1 x627 +1 x55 >= 0 ;
+1 x627 -1 x31 -1 x55 >= -1 ;
-1 x615 +1 x30 >= 0 ;
-1 x615 +1 x56 >= 0 ;
+1 x615 -1 x30 -1 x56 >= -1 ;
-1 x603 +1 x29 >= 0 ;
-1 x603 +1 x57 >= 0 ;
+1 x603 -1 x29 -1 x57 >= -1 ;
-1 x591 +1 x28 >= 0 ;
-1 x591 +1 x58 >= 0 ;
+1 x591 -1 x28 -1 x58 >= -1 ;
-1 x579 +1 x27 >= 0 ;
-1 x579 +1 x59 >= 0 ;
+1 x579 -1 x27 -1 x59 >= -1 ;
-1 x157 +1 x47 >= 0 ;
-1 x157 +1 x53 >= 0 ;
+1 x157 -1 x47 -1 x53 >= -1 ;
-1 x145 +1 x46 >= 0 ;
-1 x145 +1 x54 >= 0 ;
+1 x145 -1 x46 -1 x54 >= -1 ;
-1 x133 +1 x45 >= 0 ;
-1 x133 +1 x55 >= 0 ;
+1 x133 -1 x45 -1 x55 >= -1 ;
-1 x121 +1 x44 >= 0 ;
-1 x121 +1 x56 >= 0 ;
+1 x121 -1 x44 -1 x56 >= -1 ;
-1 x109 +1 x43 >= 0 ;
-1 x109 +1 x57 >= 0 ;
+1 x109 -1 x43 -1 x57 >= -1 ;
-1 x97 +1 x42 >= 0 ;
-1 x97 +1 x58 >= 0 ;
+1 x97 -1 x42 -1 x58 >= -1 ;
-1 x85 +1 x41 >= 0 ;
-1 x85 +1 x59 >= 0 ;
+1 x85 -1 x41 -1 x59 >= -1 ;
-1 x73 +1 x40 >= 0 ;
-1 x73 +1 x60 >= 0 ;
+1 x73 -1 x40 -1 x60 >= -1 ;
-1 x664 +1 x34 >= 0 ;
-1 x664 +1 x53 >= 0 ;
+1 x664 -1 x34 -1 x53 >= -1 ;
-1 x652 +1 x33 >= 0 ;
-1 x652 +1 x54 >= 0 ;
+1 x652 -1 x33 -1 x54 >= -1 ;
-1 x640 +1 x32 >= 0 ;
-1 x640 +1 x55 >= 0 ;
+1 x640 -1 x32 -1 x55 >= -1 ;
-1 x628 +1 x31 >= 0 ;
-1 x628 +1 x56 >= 0 ;
+1 x628 -1 x31 -1 x56 >= -1 ;
-1 x616 +1 x30 >= 0 ;
-1 x616 +1 x57 >= 0 ;
+1 x616 -1 x30 -1 x57 >= -1 ;
-1 x604 +1 x29 >= 0 ;
-1 x604 +1 x58 >= 0 ;
+1 x604 -1 x29 -1 x58 >= -1 ;
-1 x592 +1 x28 >= 0 ;
-1 x592 +1 x59 >= 0 ;
+1 x592 -1 x28 -1 x59 >= -1 ;
-1 x580 +1 x27 >= 0 ;
-1 x580 +1 x60 >= 0 ;
+1 x580 -1 x27 -1 x60 >= -1 ;
-1 x170 +1 x48 >= 0 ;
-1 x170 +1 x53 >= 0 ;
+1 x170 -1 x48 -1 x53 >= -1 ;
-1 x158 +1 x47 >= 0 ;
-1 x158 +1 x54 >= 0 ;
+1 x158 -1 x47 -1 x54 >= -1 ;
-1 x146 +1 x46 >= 0 ;
-1 x146 +1 x55 >= 0 ;
+1 x146 -1 x46 -1 x55 >= -1 ;
-1 x134 +1 x45 >= 0 ;
-1 x134 +1 x56 >= 0 ;
+1 x134 -1 x45 -1 x56 >= -1 ;
-1 x122 +1 x44 >= 0 ;
-1 x122 +1 x57 >= 0 ;
+1 x122 -1 x44 -1 x57 >= -1 ;
-1 x110 +1 x43 >= 0 ;
-1 x110 +1 x58 >= 0 ;
+1 x110 -1 x43 -1 x58 >= -1 ;
-1 x98 +1 x42 >= 0 ;
-1 x98 +1 x59 >= 0 ;
+1 x98 -1 x42 -1 x59 >= -1 ;
-1 x86 +1 x41 >= 0 ;
-1 x86 +1 x60 >= 0 ;
+1 x86 -1 x41 -1 x60 >= -1 ;
-1 x74 +1 x40 >= 0 ;
-1 x74 +1 x61 >= 0 ;
+1 x74 -1 x40 -1 x61 >= -1 ;
-1 x677 +1 x35 >= 0 ;
-1 x677 +1 x53 >= 0 ;
+1 x677 -1 x35 -1 x53 >= -1 ;
-1 x665 +1 x34 >= 0 ;
-1 x665 +1 x54 >= 0 ;
+1 x665 -1 x34 -1 x54 >= -1 ;
-1 x653 +1 x33 >= 0 ;
-1 x653 +1 x55 >= 0 ;
+1 x653 -1 x33 -1 x55 >= -1 ;
-1 x641 +1 x32 >= 0 ;
-1 x641 +1 x56 >= 0 ;
+1 x641 -1 x32 -1 x56 >= -1 ;
-1 x629 +1 x31 >= 0 ;
-1 x629 +1 x57 >= 0 ;
+1 x629 -1 x31 -1 x57 >= -1 ;
-1 x617 +1 x30 >= 0 ;
-1 x617 +1 x58 >= 0 ;
+1 x617 -1 x30 -1 x58 >= -1 ;
-1 x605 +1 x29 >= 0 ;
-1 x605 +1 x59 >= 0 ;
+1 x605 -1 x29 -1 x59 >= -1 ;
-1 x593 +1 x28 >= 0 ;
-1 x593 +1 x60 >= 0 ;
+1 x593 -1 x28 -1 x60 >= -1 ;
-1 x581 +1 x27 >= 0 ;
-1 x581 +1 x61 >= 0 ;
+1 x581 -1 x27 -1 x61 >= -1 ;
-1 x183 +1 x49 >= 0 ;
-1 x183 +1 x53 >= 0 ;
+1 x183 -1 x49 -1 x53 >= -1 ;
-1 x171 +1 x48 >= 0 ;
-1 x171 +1 x54 >= 0 ;
+1 x171 -1 x48 -1 x54 >= -1 ;
-1 x159 +1 x47 >= 0 ;
-1 x159 +1 x55 >= 0 ;
+1 x159 -1 x47 -1 x55 >= -1 ;
-1 x147 +1 x46 >= 0 ;
-1 x147 +1 x56 >= 0 ;
+1 x147 -1 x46 -1 x56 >= -1 ;
-1 x135 +1 x45 >= 0 ;
-1 x135 +1 x57 >= 0 ;
+1 x135 -1 x45 -1 x57 >= -1 ;
-1 x123 +1 x44 >= 0 ;
-1 x123 +1 x58 >= 0 ;
+1 x123 -1 x44 -1 x58 >= -1 ;
-1 x111 +1 x43 >= 0 ;
-1 x111 +1 x59 >= 0 ;
+1 x111 -1 x43 -1 x59 >= -1 ;
-1 x99 +1 x42 >= 0 ;
-1 x99 +1 x60 >= 0 ;
+1 x99 -1 x42 -1 x60 >= -1 ;
-1 x87 +1 x41 >= 0 ;
-1 x87 +1 x61 >= 0 ;
+1 x87 -1 x41 -1 x61 >= -1 ;
-1 x75 +1 x40 >= 0 ;
-1 x75 +1 x62 >= 0 ;
+1 x75 -1 x40 -1 x62 >= -1 ;
-1 x690 +1 x36 >= 0 ;
-1 x690 +1 x53 >= 0 ;
+1 x690 -1 x36 -1 x53 >= -1 ;
-1 x678 +1 x35 >= 0 ;
-1 x678 +1 x54 >= 0 ;
+1 x678 -1 x35 -1 x54 >= -1 ;
-1 x666 +1 x34 >= 0 ;
-1 x666 +1 x55 >= 0 ;
+1 x666 -1 x34 -1 x55 >= -1 ;
-1 x654 +1 x33 >= 0 ;
-1 x654 +1 x56 >= 0 ;
+1 x654 -1 x33 -1 x56 >= -1 ;
-1 x642 +1 x32 >= 0 ;
-1 x642 +1 x57 >= 0 ;
+1 x642 -1 x32 -1 x57 >= -1 ;
-1 x630 +1 x31 >= 0 ;
-1 x630 +1 x58 >= 0 ;
+1 x630 -1 x31 -1 x58 >= -1 ;
-1 x618 +1 x30 >= 0 ;
-1 x618 +1 x59 >= 0 ;
+1 x618 -1 x30 -1 x59 >= -1 ;
-1 x606 +1 x29 >= 0 ;
-1 x606 +1 x60 >= 0 ;
+1 x606 -1 x29 -1 x60 >= -1 ;
-1 x594 +1 x28 >= 0 ;
-1 x594 +1 x61 >= 0 ;
+1 x594 -1 x28 -1 x61 >= -1 ;
-1 x582 +1 x27 >= 0 ;
-1 x582 +1 x62 >= 0 ;
+1 x582 -1 x27 -1 x62 >= -1 ;
-1 x196 +1 x50 >= 0 ;
-1 x196 +1 x53 >= 0 ;
+1 x196 -1 x50 -1 x53 >= -1 ;
-1 x184 +1 x49 >= 0 ;
-1 x184 +1 x54 >= 0 ;
+1 x184 -1 x49 -1 x54 >= -1 ;
-1 x172 +1 x48 >= 0 ;
-1 x172 +1 x55 >= 0 ;
+1 x172 -1 x48 -1 x55 >= -1 ;
-1 x160 +1 x47 >= 0 ;
-1 x160 +1 x56 >= 0 ;
+1 x160 -1 x47 -1 x56 >= -1 ;
-1 x148 +1 x46 >= 0 ;
-1 x148 +1 x57 >= 0 ;
+1 x148 -1 x46 -1 x57 >= -1 ;
-1 x136 +1 x45 >= 0 ;
-1 x136 +1 x58 >= 0 ;
+1 x136 -1 x45 -1 x58 >= -1 ;
-1 x124 +1 x44 >= 0 ;
-1 x124 +1 x59 >= 0 ;
+1 x124 -1 x44 -1 x59 >= -1 ;
-1 x112 +1 x43 >= 0 ;
-1 x112 +1 x60 >= 0 ;
+1 x112 -1 x43 -1 x60 >= -1 ;
-1 x100 +1 x42 >= 0 ;
-1 x100 +1 x61 >= 0 ;
+1 x100 -1 x42 -1 x61 >= -1 ;
-1 x88 +1 x41 >= 0 ;
-1 x88 +1 x62 >= 0 ;
+1 x88 -1 x41 -1 x62 >= -1 ;
-1 x76 +1 x40 >= 0 ;
-1 x76 +1 x63 >= 0 ;
+1 x76 -1 x40 -1 x63 >= -1 ;
-1 x703 +1 x37 >= 0 ;
-1 x703 +1 x53 >= 0 ;
+1 x703 -1 x37 -1 x53 >= -1 ;
-1 x691 +1 x36 >= 0 ;
-1 x691 +1 x54 >= 0 ;
+1 x691 -1 x36 -1 x54 >= -1 ;
-1 x679 +1 x35 >= 0 ;
-1 x679 +1 x55 >= 0 ;
+1 x679 -1 x35 -1 x55 >= -1 ;
-1 x667 +1 x34 >= 0 ;
-1 x667 +1 x56 >= 0 ;
+1 x667 -1 x34 -1 x56 >= -1 ;
-1 x655 +1 x33 >= 0 ;
-1 x655 +1 x57 >= 0 ;
+1 x655 -1 x33 -1 x57 >= -1 ;
-1 x643 +1 x32 >= 0 ;
-1 x643 +1 x58 >= 0 ;
+1 x643 -1 x32 -1 x58 >= -1 ;
-1 x631 +1 x31 >= 0 ;
-1 x631 +1 x59 >= 0 ;
+1 x631 -1 x31 -1 x59 >= -1 ;
-1 x619 +1 x30 >= 0 ;
-1 x619 +1 x60 >= 0 ;
+1 x619 -1 x30 -1 x60 >= -1 ;
-1 x607 +1 x29 >= 0 ;
-1 x607 +1 x61 >= 0 ;
+1 x607 -1 x29 -1 x61 >= -1 ;
-1 x595 +1 x28 >= 0 ;
-1 x595 +1 x62 >= 0 ;
+1 x595 -1 x28 -1 x62 >= -1 ;
-1 x583 +1 x27 >= 0 ;
-1 x583 +1 x63 >= 0 ;
+1 x583 -1 x27 -1 x63 >= -1 ;
-1 x209 +1 x51 >= 0 ;
-1 x209 +1 x53 >= 0 ;
+1 x209 -1 x51 -1 x53 >= -1 ;
-1 x197 +1 x50 >= 0 ;
-1 x197 +1 x54 >= 0 ;
+1 x197 -1 x50 -1 x54 >= -1 ;
-1 x185 +1 x49 >= 0 ;
-1 x185 +1 x55 >= 0 ;
+1 x185 -1 x49 -1 x55 >= -1 ;
-1 x173 +1 x48 >= 0 ;
-1 x173 +1 x56 >= 0 ;
+1 x173 -1 x48 -1 x56 >= -1 ;
-1 x161 +1 x47 >= 0 ;
-1 x161 +1 x57 >= 0 ;
+1 x161 -1 x47 -1 x57 >= -1 ;
-1 x149 +1 x46 >= 0 ;
-1 x149 +1 x58 >= 0 ;
+1 x149 -1 x46 -1 x58 >= -1 ;
-1 x137 +1 x45 >= 0 ;
-1 x137 +1 x59 >= 0 ;
+1 x137 -1 x45 -1 x59 >= -1 ;
-1 x125 +1 x44 >= 0 ;
-1 x125 +1 x60 >= 0 ;
+1 x125 -1 x44 -1 x60 >= -1 ;
-1 x113 +1 x43 >= 0 ;
-1 x113 +1 x61 >= 0 ;
+1 x113 -1 x43 -1 x61 >= -1 ;
-1 x101 +1 x42 >= 0 ;
-1 x101 +1 x62 >= 0 ;
+1 x101 -1 x42 -1 x62 >= -1 ;
-1 x89 +1 x41 >= 0 ;
-1 x89 +1 x63 >= 0 ;
+1 x89 -1 x41 -1 x63 >= -1 ;
-1 x77 +1 x40 >= 0 ;
-1 x77 +1 x64 >= 0 ;
+1 x77 -1 x40 -1 x64 >= -1 ;
-1 x716 +1 x38 >= 0 ;
-1 x716 +1 x53 >= 0 ;
+1 x716 -1 x38 -1 x53 >= -1 ;
-1 x704 +1 x37 >= 0 ;
-1 x704 +1 x54 >= 0 ;
+1 x704 -1 x37 -1 x54 >= -1 ;
-1 x692 +1 x36 >= 0 ;
-1 x692 +1 x55 >= 0 ;
+1 x692 -1 x36 -1 x55 >= -1 ;
-1 x680 +1 x35 >= 0 ;
-1 x680 +1 x56 >= 0 ;
+1 x680 -1 x35 -1 x56 >= -1 ;
-1 x668 +1 x34 >= 0 ;
-1 x668 +1 x57 >= 0 ;
+1 x668 -1 x34 -1 x57 >= -1 ;
-1 x656 +1 x33 >= 0 ;
-1 x656 +1 x58 >= 0 ;
+1 x656 -1 x33 -1 x58 >= -1 ;
-1 x644 +1 x32 >= 0 ;
-1 x644 +1 x59 >= 0 ;
+1 x644 -1 x32 -1 x59 >= -1 ;
-1 x632 +1 x31 >= 0 ;
-1 x632 +1 x60 >= 0 ;
+1 x632 -1 x31 -1 x60 >= -1 ;
-1 x620 +1 x30 >= 0 ;
-1 x620 +1 x61 >= 0 ;
+1 x620 -1 x30 -1 x61 >= -1 ;
-1 x608 +1 x29 >= 0 ;
-1 x608 +1 x62 >= 0 ;
+1 x608 -1 x29 -1 x62 >= -1 ;
-1 x596 +1 x28 >= 0 ;
-1 x596 +1 x63 >= 0 ;
+1 x596 -1 x28 -1 x63 >= -1 ;
-1 x584 +1 x27 >= 0 ;
-1 x584 +1 x64 >= 0 ;
+1 x584 -1 x27 -1 x64 >= -1 ;
-1 x222 +1 x52 >= 0 ;
-1 x222 +1 x53 >= 0 ;
+1 x222 -1 x52 -1 x53 >= -1 ;
-1 x210 +1 x51 >= 0 ;
-1 x210 +1 x54 >= 0 ;
+1 x210 -1 x51 -1 x54 >= -1 ;
-1 x198 +1 x50 >= 0 ;
-1 x198 +1 x55 >= 0 ;
+1 x198 -1 x50 -1 x55 >= -1 ;
-1 x186 +1 x49 >= 0 ;
-1 x186 +1 x56 >= 0 ;
+1 x186 -1 x49 -1 x56 >= -1 ;
-1 x174 +1 x48 >= 0 ;
-1 x174 +1 x57 >= 0 ;
+1 x174 -1 x48 -1 x57 >= -1 ;
-1 x162 +1 x47 >= 0 ;
-1 x162 +1 x58 >= 0 ;
+1 x162 -1 x47 -1 x58 >= -1 ;
-1 x150 +1 x46 >= 0 ;
-1 x150 +1 x59 >= 0 ;
+1 x150 -1 x46 -1 x59 >= -1 ;
-1 x138 +1 x45 >= 0 ;
-1 x138 +1 x60 >= 0 ;
+1 x138 -1 x45 -1 x60 >= -1 ;
-1 x126 +1 x44 >= 0 ;
-1 x126 +1 x61 >= 0 ;
+1 x126 -1 x44 -1 x61 >= -1 ;
-1 x114 +1 x43 >= 0 ;
-1 x114 +1 x62 >= 0 ;
+1 x114 -1 x43 -1 x62 >= -1 ;
-1 x102 +1 x42 >= 0 ;
-1 x102 +1 x63 >= 0 ;
+1 x102 -1 x42 -1 x63 >= -1 ;
-1 x90 +1 x41 >= 0 ;
-1 x90 +1 x64 >= 0 ;
+1 x90 -1 x41 -1 x64 >= -1 ;
-1 x78 +1 x40 >= 0 ;
-1 x78 +1 x65 >= 0 ;
+1 x78 -1 x40 -1 x65 >= -1 ;
-1 x729 +1 x39 >= 0 ;
-1 x729 +1 x53 >= 0 ;
+1 x729 -1 x39 -1 x53 >= -1 ;
-1 x717 +1 x38 >= 0 ;
-1 x717 +1 x54 >= 0 ;
+1 x717 -1 x38 -1 x54 >= -1 ;
-1 x705 +1 x37 >= 0 ;
-1 x705 +1 x55 >= 0 ;
+1 x705 -1 x37 -1 x55 >= -1 ;
-1 x693 +1 x36 >= 0 ;
-1 x693 +1 x56 >= 0 ;
+1 x693 -1 x36 -1 x56 >= -1 ;
-1 x681 +1 x35 >= 0 ;
-1 x681 +1 x57 >= 0 ;
+1 x681 -1 x35 -1 x57 >= -1 ;
-1 x669 +1 x34 >= 0 ;
-1 x669 +1 x58 >= 0 ;
+1 x669 -1 x34 -1 x58 >= -1 ;
-1 x657 +1 x33 >= 0 ;
-1 x657 +1 x59 >= 0 ;
+1 x657 -1 x33 -1 x59 >= -1 ;
-1 x645 +1 x32 >= 0 ;
-1 x645 +1 x60 >= 0 ;
+1 x645 -1 x32 -1 x60 >= -1 ;
-1 x633 +1 x31 >= 0 ;
-1 x633 +1 x61 >= 0 ;
+1 x633 -1 x31 -1 x61 >= -1 ;
-1 x621 +1 x30 >= 0 ;
-1 x621 +1 x62 >= 0 ;
+1 x621 -1 x30 -1 x62 >= -1 ;
-1 x609 +1 x29 >= 0 ;
-1 x609 +1 x63 >= 0 ;
+1 x609 -1 x29 -1 x63 >= -1 ;
-1 x597 +1 x28 >= 0 ;
-1 x597 +1 x64 >= 0 ;
+1 x597 -1 x28 -1 x64 >= -1 ;
-1 x585 +1 x27 >= 0 ;
-1 x585 +1 x65 >= 0 ;
+1 x585 -1 x27 -1 x65 >= -1 ;
-1 x223 +1 x52 >= 0 ;
-1 x223 +1 x54 >= 0 ;
+1 x223 -1 x52 -1 x54 >= -1 ;
-1 x211 +1 x51 >= 0 ;
-1 x211 +1 x55 >= 0 ;
+1 x211 -1 x51 -1 x55 >= -1 ;
-1 x199 +1 x50 >= 0 ;
-1 x199 +1 x56 >= 0 ;
+1 x199 -1 x50 -1 x56 >= -1 ;
-1 x187 +1 x49 >= 0 ;
-1 x187 +1 x57 >= 0 ;
+1 x187 -1 x49 -1 x57 >= -1 ;
-1 x175 +1 x48 >= 0 ;
-1 x175 +1 x58 >= 0 ;
+1 x175 -1 x48 -1 x58 >= -1 ;
-1 x163 +1 x47 >= 0 ;
-1 x163 +1 x59 >= 0 ;
+1 x163 -1 x47 -1 x59 >= -1 ;
-1 x151 +1 x46 >= 0 ;
-1 x151 +1 x60 >= 0 ;
+1 x151 -1 x46 -1 x60 >= -1 ;
-1 x139 +1 x45 >= 0 ;
-1 x139 +1 x61 >= 0 ;
+1 x139 -1 x45 -1 x61 >= -1 ;
-1 x127 +1 x44 >= 0 ;
-1 x127 +1 x62 >= 0 ;
+1 x127 -1 x44 -1 x62 >= -1 ;
-1 x115 +1 x43 >= 0 ;
-1 x115 +1 x63 >= 0 ;
+1 x115 -1 x43 -1 x63 >= -1 ;
-1 x103 +1 x42 >= 0 ;
-1 x103 +1 x64 >= 0 ;
+1 x103 -1 x42 -1 x64 >= -1 ;
-1 x91 +1 x41 >= 0 ;
-1 x91 +1 x65 >= 0 ;
+1 x91 -1 x41 -1 x65 >= -1 ;
-1 x730 +1 x39 >= 0 ;
-1 x730 +1 x54 >= 0 ;
+1 x730 -1 x39 -1 x54 >= -1 ;
-1 x718 +1 x38 >= 0 ;
-1 x718 +1 x55 >= 0 ;
+1 x718 -1 x38 -1 x55 >= -1 ;
-1 x706 +1 x37 >= 0 ;
-1 x706 +1 x56 >= 0 ;
+1 x706 -1 x37 -1 x56 >= -1 ;
-1 x694 +1 x36 >= 0 ;
-1 x694 +1 x57 >= 0 ;
+1 x694 -1 x36 -1 x57 >= -1 ;
-1 x682 +1 x35 >= 0 ;
-1 x682 +1 x58 >= 0 ;
+1 x682 -1 x35 -1 x58 >= -1 ;
-1 x670 +1 x34 >= 0 ;
-1 x670 +1 x59 >= 0 ;
+1 x670 -1 x34 -1 x59 >= -1 ;
-1 x658 +1 x33 >= 0 ;
-1 x658 +1 x60 >= 0 ;
+1 x658 -1 x33 -1 x60 >= -1 ;
-1 x646 +1 x32 >= 0 ;
-1 x646 +1 x61 >= 0 ;
+1 x646 -1 x32 -1 x61 >= -1 ;
-1 x634 +1 x31 >= 0 ;
-1 x634 +1 x62 >= 0 ;
+1 x634 -1 x31 -1 x62 >= -1 ;
-1 x622 +1 x30 >= 0 ;
-1 x622 +1 x63 >= 0 ;
+1 x622 -1 x30 -1 x63 >= -1 ;
-1 x610 +1 x29 >= 0 ;
-1 x610 +1 x64 >= 0 ;
+1 x610 -1 x29 -1 x64 >= -1 ;
-1 x598 +1 x28 >= 0 ;
-1 x598 +1 x65 >= 0 ;
+1 x598 -1 x28 -1 x65 >= -1 ;
-1 x224 +1 x52 >= 0 ;
-1 x224 +1 x55 >= 0 ;
+1 x224 -1 x52 -1 x55 >= -1 ;
-1 x212 +1 x51 >= 0 ;
-1 x212 +1 x56 >= 0 ;
+1 x212 -1 x51 -1 x56 >= -1 ;
-1 x200 +1 x50 >= 0 ;
-1 x200 +1 x57 >= 0 ;
+1 x200 -1 x50 -1 x57 >= -1 ;
-1 x188 +1 x49 >= 0 ;
-1 x188 +1 x58 >= 0 ;
+1 x188 -1 x49 -1 x58 >= -1 ;
-1 x176 +1 x48 >= 0 ;
-1 x176 +1 x59 >= 0 ;
+1 x176 -1 x48 -1 x59 >= -1 ;
-1 x164 +1 x47 >= 0 ;
-1 x164 +1 x60 >= 0 ;
+1 x164 -1 x47 -1 x60 >= -1 ;
-1 x152 +1 x46 >= 0 ;
-1 x152 +1 x61 >= 0 ;
+1 x152 -1 x46 -1 x61 >= -1 ;
-1 x140 +1 x45 >= 0 ;
-1 x140 +1 x62 >= 0 ;
+1 x140 -1 x45 -1 x62 >= -1 ;
-1 x128 +1 x44 >= 0 ;
-1 x128 +1 x63 >= 0 ;
+1 x128 -1 x44 -1 x63 >= -1 ;
-1 x116 +1 x43 >= 0 ;
-1 x116 +1 x64 >= 0 ;
+1 x116 -1 x43 -1 x64 >= -1 ;
-1 x104 +1 x42 >= 0 ;
-1 x104 +1 x65 >= 0 ;
+1 x104 -1 x42 -1 x65 >= -1 ;
-1 x731 +1 x39 >= 0 ;
-1 x731 +1 x55 >= 0 ;
+1 x731 -1 x39 -1 x55 >= -1 ;
-1 x719 +1 x38 >= 0 ;
-1 x719 +1 x56 >= 0 ;
+1 x719 -1 x38 -1 x56 >= -1 ;
-1 x707 +1 x37 >= 0 ;
-1 x707 +1 x57 >= 0 ;
+1 x707 -1 x37 -1 x57 >= -1 ;
-1 x695 +1 x36 >= 0 ;
-1 x695 +1 x58 >= 0 ;
+1 x695 -1 x36 -1 x58 >= -1 ;
-1 x683 +1 x35 >= 0 ;
-1 x683 +1 x59 >= 0 ;
+1 x683 -1 x35 -1 x59 >= -1 ;
-1 x671 +1 x34 >= 0 ;
-1 x671 +1 x60 >= 0 ;
+1 x671 -1 x34 -1 x60 >= -1 ;
-1 x659 +1 x33 >= 0 ;
-1 x659 +1 x61 >= 0 ;
+1 x659 -1 x33 -1 x61 >= -1 ;
-1 x647 +1 x32 >= 0 ;
-1 x647 +1 x62 >= 0 ;
+1 x647 -1 x32 -1 x62 >= -1 ;
-1 x635 +1 x31 >= 0 ;
-1 x635 +1 x63 >= 0 ;
+1 x635 -1 x31 -1 x63 >= -1 ;
-1 x623 +1 x30 >= 0 ;
-1 x623 +1 x64 >= 0 ;
+1 x623 -1 x30 -1 x64 >= -1 ;
-1 x611 +1 x29 >= 0 ;
-1 x611 +1 x65 >= 0 ;
+1 x611 -1 x29 -1 x65 >= -1 ;
-1 x225 +1 x52 >= 0 ;
-1 x225 +1 x56 >= 0 ;
+1 x225 -1 x52 -1 x56 >= -1 ;
-1 x213 +1 x51 >= 0 ;
-1 x213 +1 x57 >= 0 ;
+1 x213 -1 x51 -1 x57 >= -1 ;
-1 x201 +1 x50 >= 0 ;
-1 x201 +1 x58 >= 0 ;
+1 x201 -1 x50 -1 x58 >= -1 ;
-1 x189 +1 x49 >= 0 ;
-1 x189 +1 x59 >= 0 ;
+1 x189 -1 x49 -1 x59 >= -1 ;
-1 x177 +1 x48 >= 0 ;
-1 x177 +1 x60 >= 0 ;
+1 x177 -1 x48 -1 x60 >= -1 ;
-1 x165 +1 x47 >= 0 ;
-1 x165 +1 x61 >= 0 ;
+1 x165 -1 x47 -1 x61 >= -1 ;
-1 x153 +1 x46 >= 0 ;
-1 x153 +1 x62 >= 0 ;
+1 x153 -1 x46 -1 x62 >= -1 ;
-1 x141 +1 x45 >= 0 ;
-1 x141 +1 x63 >= 0 ;
+1 x141 -1 x45 -1 x63 >= -1 ;
-1 x129 +1 x44 >= 0 ;
-1 x129 +1 x64 >= 0 ;
+1 x129 -1 x44 -1 x64 >= -1 ;
-1 x117 +1 x43 >= 0 ;
-1 x117 +1 x65 >= 0 ;
+1 x117 -1 x43 -1 x65 >= -1 ;
-1 x732 +1 x39 >= 0 ;
-1 x732 +1 x56 >= 0 ;
+1 x732 -1 x39 -1 x56 >= -1 ;
-1 x720 +1 x38 >= 0 ;
-1 x720 +1 x57 >= 0 ;
+1 x720 -1 x38 -1 x57 >= -1 ;
-1 x708 +1 x37 >= 0 ;
-1 x708 +1 x58 >= 0 ;
+1 x708 -1 x37 -1 x58 >= -1 ;
-1 x696 +1 x36 >= 0 ;
-1 x696 +1 x59 >= 0 ;
+1 x696 -1 x36 -1 x59 >= -1 ;
-1 x684 +1 x35 >= 0 ;
-1 x684 +1 x60 >= 0 ;
+1 x684 -1 x35 -1 x60 >= -1 ;
-1 x672 +1 x34 >= 0 ;
-1 x672 +1 x61 >= 0 ;
+1 x672 -1 x34 -1 x61 >= -1 ;
-1 x660 +1 x33 >= 0 ;
-1 x660 +1 x62 >= 0 ;
+1 x660 -1 x33 -1 x62 >= -1 ;
-1 x648 +1 x32 >= 0 ;
-1 x648 +1 x63 >= 0 ;
+1 x648 -1 x32 -1 x63 >= -1 ;
-1 x636 +1 x31 >= 0 ;
-1 x636 +1 x64 >= 0 ;
+1 x636 -1 x31 -1 x64 >= -1 ;
-1 x624 +1 x30 >= 0 ;
-1 x624 +1 x65 >= 0 ;
+1 x624 -1 x30 -1 x65 >= -1 ;
-1 x226 +1 x52 >= 0 ;
-1 x226 +1 x57 >= 0 ;
+1 x226 -1 x52 -1 x57 >= -1 ;
-1 x214 +1 x51 >= 0 ;
-1 x214 +1 x58 >= 0 ;
+1 x214 -1 x51 -1 x58 >= -1 ;
-1 x202 +1 x50 >= 0 ;
-1 x202 +1 x59 >= 0 ;
+1 x202 -1 x50 -1 x59 >= -1 ;
-1 x190 +1 x49 >= 0 ;
-1 x190 +1 x60 >= 0 ;
+1 x190 -1 x49 -1 x60 >= -1 ;
-1 x178 +1 x48 >= 0 ;
-1 x178 +1 x61 >= 0 ;
+1 x178 -1 x48 -1 x61 >= -1 ;
-1 x166 +1 x47 >= 0 ;
-1 x166 +1 x62 >= 0 ;
+1 x166 -1 x47 -1 x62 >= -1 ;
-1 x154 +1 x46 >= 0 ;
-1 x154 +1 x63 >= 0 ;
+1 x154 -1 x46 -1 x63 >= -1 ;
-1 x142 +1 x45 >= 0 ;
-1 x142 +1 x64 >= 0 ;
+1 x142 -1 x45 -1 x64 >= -1 ;
-1 x130 +1 x44 >= 0 ;
-1 x130 +1 x65 >= 0 ;
+1 x130 -1 x44 -1 x65 >= -1 ;
-1 x733 +1 x39 >= 0 ;
-1 x733 +1 x57 >= 0 ;
+1 x733 -1 x39 -1 x57 >= -1 ;
-1 x721 +1 x38 >= 0 ;
-1 x721 +1 x58 >= 0 ;
+1 x721 -1 x38 -1 x58 >= -1 ;
-1 x709 +1 x37 >= 0 ;
-1 x709 +1 x59 >= 0 ;
+1 x709 -1 x37 -1 x59 >= -1 ;
-1 x697 +1 x36 >= 0 ;
-1 x697 +1 x60 >= 0 ;
+1 x697 -1 x36 -1 x60 >= -1 ;
-1 x685 +1 x35 >= 0 ;
-1 x685 +1 x61 >= 0 ;
+1 x685 -1 x35 -1 x61 >= -1 ;
-1 x673 +1 x34 >= 0 ;
-1 x673 +1 x62 >= 0 ;
+1 x673 -1 x34 -1 x62 >= -1 ;
-1 x661 +1 x33 >= 0 ;
-1 x661 +1 x63 >= 0 ;
+1 x661 -1 x33 -1 x63 >= -1 ;
-1 x649 +1 x32 >= 0 ;
-1 x649 +1 x64 >= 0 ;
+1 x649 -1 x32 -1 x64 >= -1 ;
-1 x637 +1 x31 >= 0 ;
-1 x637 +1 x65 >= 0 ;
+1 x637 -1 x31 -1 x65 >= -1 ;
-1 x227 +1 x52 >= 0 ;
-1 x227 +1 x58 >= 0 ;
+1 x227 -1 x52 -1 x58 >= -1 ;
-1 x215 +1 x51 >= 0 ;
-1 x215 +1 x59 >= 0 ;
+1 x215 -1 x51 -1 x59 >= -1 ;
-1 x203 +1 x50 >= 0 ;
-1 x203 +1 x60 >= 0 ;
+1 x203 -1 x50 -1 x60 >= -1 ;
-1 x191 +1 x49 >= 0 ;
-1 x191 +1 x61 >= 0 ;
+1 x191 -1 x49 -1 x61 >= -1 ;
-1 x179 +1 x48 >= 0 ;
-1 x179 +1 x62 >= 0 ;
+1 x179 -1 x48 -1 x62 >= -1 ;
-1 x167 +1 x47 >= 0 ;
-1 x167 +1 x63 >= 0 ;
+1 x167 -1 x47 -1 x63 >= -1 ;
-1 x155 +1 x46 >= 0 ;
-1 x155 +1 x64 >= 0 ;
+1 x155 -1 x46 -1 x64 >= -1 ;
-1 x143 +1 x45 >= 0 ;
-1 x143 +1 x65 >= 0 ;
+1 x143 -1 x45 -1 x65 >= -1 ;
-1 x734 +1 x39 >= 0 ;
-1 x734 +1 x58 >= 0 ;
+1 x734 -1 x39 -1 x58 >= -1 ;
-1 x722 +1 x38 >= 0 ;
-1 x722 +1 x59 >= 0 ;
+1 x722 -1 x38 -1 x59 >= -1 ;
-1 x710 +1 x37 >= 0 ;
-1 x710 +1 x60 >= 0 ;
+1 x710 -1 x37 -1 x60 >= -1 ;
-1 x698 +1 x36 >= 0 ;
-1 x698 +1 x61 >= 0 ;
+1 x698 -1 x36 -1 x61 >= -1 ;
-1 x686 +1 x35 >= 0 ;
-1 x686 +1 x62 >= 0 ;
+1 x686 -1 x35 -1 x62 >= -1 ;
-1 x674 +1 x34 >= 0 ;
-1 x674 +1 x63 >= 0 ;
+1 x674 -1 x34 -1 x63 >= -1 ;
-1 x662 +1 x33 >= 0 ;
-1 x662 +1 x64 >= 0 ;
+1 x662 -1 x33 -1 x64 >= -1 ;
-1 x650 +1 x32 >= 0 ;
-1 x650 +1 x65 >= 0 ;
+1 x650 -1 x32 -1 x65 >= -1 ;
-1 x228 +1 x52 >= 0 ;
-1 x228 +1 x59 >= 0 ;
+1 x228 -1 x52 -1 x59 >= -1 ;
-1 x216 +1 x51 >= 0 ;
-1 x216 +1 x60 >= 0 ;
+1 x216 -1 x51 -1 x60 >= -1 ;
-1 x204 +1 x50 >= 0 ;
-1 x204 +1 x61 >= 0 ;
+1 x204 -1 x50 -1 x61 >= -1 ;
-1 x192 +1 x49 >= 0 ;
-1 x192 +1 x62 >= 0 ;
+1 x192 -1 x49 -1 x62 >= -1 ;
-1 x180 +1 x48 >= 0 ;
-1 x180 +1 x63 >= 0 ;
+1 x180 -1 x48 -1 x63 >= -1 ;
-1 x168 +1 x47 >= 0 ;
-1 x168 +1 x64 >= 0 ;
+1 x168 -1 x47 -1 x64 >= -1 ;
-1 x156 +1 x46 >= 0 ;
-1 x156 +1 x65 >= 0 ;
+1 x156 -1 x46 -1 x65 >= -1 ;
-1 x735 +1 x39 >= 0 ;
-1 x735 +1 x59 >= 0 ;
+1 x735 -1 x39 -1 x59 >= -1 ;
-1 x723 +1 x38 >= 0 ;
-1 x723 +1 x60 >= 0 ;
+1 x723 -1 x38 -1 x60 >= -1 ;
-1 x711 +1 x37 >= 0 ;
-1 x711 +1 x61 >= 0 ;
+1 x711 -1 x37 -1 x61 >= -1 ;
-1 x699 +1 x36 >= 0 ;
-1 x699 +1 x62 >= 0 ;
+1 x699 -1 x36 -1 x62 >= -1 ;
-1 x687 +1 x35 >= 0 ;
-1 x687 +1 x63 >= 0 ;
+1 x687 -1 x35 -1 x63 >= -1 ;
-1 x675 +1 x34 >= 0 ;
-1 x675 +1 x64 >= 0 ;
+1 x675 -1 x34 -1 x64 >= -1 ;
-1 x663 +1 x33 >= 0 ;
-1 x663 +1 x65 >= 0 ;
+1 x663 -1 x33 -1 x65 >= -1 ;
-1 x229 +1 x52 >= 0 ;
-1 x229 +1 x60 >= 0 ;
+1 x229 -1 x52 -1 x60 >= -1 ;
-1 x217 +1 x51 >= 0 ;
-1 x217 +1 x61 >= 0 ;
+1 x217 -1 x51 -1 x61 >= -1 ;
-1 x205 +1 x50 >= 0 ;
-1 x205 +1 x62 >= 0 ;
+1 x205 -1 x50 -1 x62 >= -1 ;
-1 x193 +1 x49 >= 0 ;
-1 x193 +1 x63 >= 0 ;
+1 x193 -1 x49 -1 x63 >= -1 ;
-1 x181 +1 x48 >= 0 ;
-1 x181 +1 x64 >= 0 ;
+1 x181 -1 x48 -1 x64 >= -1 ;
-1 x169 +1 x47 >= 0 ;
-1 x169 +1 x65 >= 0 ;
+1 x169 -1 x47 -1 x65 >= -1 ;
-1 x736 +1 x39 >= 0 ;
-1 x736 +1 x60 >= 0 ;
+1 x736 -1 x39 -1 x60 >= -1 ;
-1 x724 +1 x38 >= 0 ;
-1 x724 +1 x61 >= 0 ;
+1 x724 -1 x38 -1 x61 >= -1 ;
-1 x712 +1 x37 >= 0 ;
-1 x712 +1 x62 >= 0 ;
+1 x712 -1 x37 -1 x62 >= -1 ;
-1 x700 +1 x36 >= 0 ;
-1 x700 +1 x63 >= 0 ;
+1 x700 -1 x36 -1 x63 >= -1 ;
-1 x688 +1 x35 >= 0 ;
-1 x688 +1 x64 >= 0 ;
+1 x688 -1 x35 -1 x64 >= -1 ;
-1 x676 +1 x34 >= 0 ;
-1 x676 +1 x65 >= 0 ;
+1 x676 -1 x34 -1 x65 >= -1 ;
-1 x230 +1 x52 >= 0 ;
-1 x230 +1 x61 >= 0 ;
+1 x230 -1 x52 -1 x61 >= -1 ;
-1 x218 +1 x51 >= 0 ;
-1 x218 +1 x62 >= 0 ;
+1 x218 -1 x51 -1 x62 >= -1 ;
-1 x206 +1 x50 >= 0 ;
-1 x206 +1 x63 >= 0 ;
+1 x206 -1 x50 -1 x63 >= -1 ;
-1 x194 +1 x49 >= 0 ;
-1 x194 +1 x64 >= 0 ;
+1 x194 -1 x49 -1 x64 >= -1 ;
-1 x182 +1 x48 >= 0 ;
-1 x182 +1 x65 >= 0 ;
+1 x182 -1 x48 -1 x65 >= -1 ;
-1 x737 +1 x39 >= 0 ;
-1 x737 +1 x61 >= 0 ;
+1 x737 -1 x39 -1 x61 >= -1 ;
-1 x725 +1 x38 >= 0 ;
-1 x725 +1 x62 >= 0 ;
+1 x725 -1 x38 -1 x62 >= -1 ;
-1 x713 +1 x37 >= 0 ;
-1 x713 +1 x63 >= 0 ;
+1 x713 -1 x37 -1 x63 >= -1 ;
-1 x701 +1 x36 >= 0 ;
-1 x701 +1 x64 >= 0 ;
+1 x701 -1 x36 -1 x64 >= -1 ;
-1 x689 +1 x35 >= 0 ;
-1 x689 +1 x65 >= 0 ;
+1 x689 -1 x35 -1 x65 >= -1 ;
-1 x231 +1 x52 >= 0 ;
-1 x231 +1 x62 >= 0 ;
+1 x231 -1 x52 -1 x62 >= -1 ;
-1 x219 +1 x51 >= 0 ;
-1 x219 +1 x63 >= 0 ;
+1 x219 -1 x51 -1 x63 >= -1 ;
-1 x207 +1 x50 >= 0 ;
-1 x207 +1 x64 >= 0 ;
+1 x207 -1 x50 -1 x64 >= -1 ;
-1 x195 +1 x49 >= 0 ;
-1 x195 +1 x65 >= 0 ;
+1 x195 -1 x49 -1 x65 >= -1 ;
-1 x738 +1 x39 >= 0 ;
-1 x738 +1 x62 >= 0 ;
+1 x738 -1 x39 -1 x62 >= -1 ;
-1 x726 +1 x38 >= 0 ;
-1 x726 +1 x63 >= 0 ;
+1 x726 -1 x38 -1 x63 >= -1 ;
-1 x714 +1 x37 >= 0 ;
-1 x714 +1 x64 >= 0 ;
+1 x714 -1 x37 -1 x64 >= -1 ;
-1 x702 +1 x36 >= 0 ;
-1 x702 +1 x65 >= 0 ;
+1 x702 -1 x36 -1 x65 >= -1 ;
-1 x232 +1 x52 >= 0 ;
-1 x232 +1 x63 >= 0 ;
+1 x232 -1 x52 -1 x63 >= -1 ;
-1 x220 +1 x51 >= 0 ;
-1 x220 +1 x64 >= 0 ;
+1 x220 -1 x51 -1 x64 >= -1 ;
-1 x208 +1 x50 >= 0 ;
-1 x208 +1 x65 >= 0 ;
+1 x208 -1 x50 -1 x65 >= -1 ;
-1 x739 +1 x39 >= 0 ;
-1 x739 +1 x63 >= 0 ;
+1 x739 -1 x39 -1 x63 >= -1 ;
-1 x727 +1 x38 >= 0 ;
-1 x727 +1 x64 >= 0 ;
+1 x727 -1 x38 -1 x64 >= -1 ;
-1 x715 +1 x37 >= 0 ;
-1 x715 +1 x65 >= 0 ;
+1 x715 -1 x37 -1 x65 >= -1 ;
-1 x233 +1 x52 >= 0 ;
-1 x233 +1 x64 >= 0 ;
+1 x233 -1 x52 -1 x64 >= -1 ;
-1 x221 +1 x51 >= 0 ;
-1 x221 +1 x65 >= 0 ;
+1 x221 -1 x51 -1 x65 >= -1 ;
-1 x740 +1 x39 >= 0 ;
-1 x740 +1 x64 >= 0 ;
+1 x740 -1 x39 -1 x64 >= -1 ;
-1 x728 +1 x38 >= 0 ;
-1 x728 +1 x65 >= 0 ;
+1 x728 -1 x38 -1 x65 >= -1 ;
-1 x234 +1 x52 >= 0 ;
-1 x234 +1 x65 >= 0 ;
+1 x234 -1 x52 -1 x65 >= -1 ;
-1 x741 +1 x39 >= 0 ;
-1 x741 +1 x65 >= 0 ;
+1 x741 -1 x39 -1 x65 >= -1 ;
